data;
set WEIGHTS := x0 x1 x2 x3 x4 x5 x6 x7 x8 x9 x10 x11;
param:  cost :=
  x0  113054
  x1  989547
  x2  26489
  x3  192453
  x4  834699
  x5  34921
  x6  447644
  x7  643053
  x8  669655
  x9  728840
  x10  968955
  x11  911512;
param cap := 3000000;